src/utils/lkh_tsp_solver/resource/single_grid.tsp
NAME : single
TYPE : ATSP
DIMENSION : 7
EDGE_WEIGHT_TYPE : EXPLICIT
EDGE_WEIGHT_FORMAT : FULL_MATRIX
EDGE_WEIGHT_SECTION
0 4743 -906 1104 66 207 3041 
0 0 3051 596 4075 2675 2406 
0 3051 0 2318 80 1221 2767 
0 596 2318 0 2708 628 54 
0 3723 -271 2356 0 456 2182 
0 2675 1221 628 809 0 -32 
0 2406 2767 54 2535 -32 0 
EOF