src/utils/lkh_tsp_solver/resource/single_grid.txt
NAME : single.248.tour
COMMENT : Length = 248
COMMENT : Found by LKH [Keld Helsgaun] Sat Jun  6 14:45:06 2026
TYPE : TOUR
DIMENSION : 7
TOUR_SECTION
1
3
5
6
7
4
2
-1
EOF
